NumberOfAtoms       3
NumberOfSpecies     2

%block ChemicalSpeciesLabel
 1  8  O      # Species index, atomic number, species label
 2  1  H
%endblock ChemicalSpeciesLabel

AtomicCoordinatesFormat  Ang
LatticeConstant  1.0  Ang

%block LatticeVectors
10 0 0
0 10 0
0 0 10
%endblock LatticeVectors

%block AtomicCoordinatesAndAtomicSpecies
 0.757  0.586  0.000  2
-0.757  0.586  0.000  2
 0.000  0.000  0.000  1
%endblock AtomicCoordinatesAndAtomicSpecies
